[887, 895, 883, 854, 867, 893, 871, 864, 876, 857, 1755, 1752, 1766, 1792, 1759, 1713, 1731, 1731, 1750, 1753, 3482, 3489, 3477, 3510, 3466, 3545, 3475, 3551, 3525, 3516, 7035, 7068, 7009, 7009, 7072, 6985, 7006, 6987, 7013, 6978, 14016, 13955, 14017, 13969, 13965, 13934, 14019, 14042, 14029, 13959]
